NAME : mEgtspf.pid34304.gtsp.214748582.tour
COMMENT : Length = 214748582
COMMENT : Found by LKH [Keld Helsgaun] Fri Mar  7 03:40:29 2025
TYPE : TOUR
DIMENSION : 130
TOUR_SECTION
1
2
83
84
85
86
16
17
18
15
102
99
100
101
3
110
107
108
109
4
6
125
126
123
124
93
94
91
92
59
60
61
62
69
70
67
68
48
49
50
47
111
112
113
114
36
37
38
35
9
116
117
118
115
97
98
95
96
40
41
42
39
128
129
130
127
77
78
75
76
58
55
56
57
13
14
11
12
89
90
87
88
45
46
43
44
81
82
79
80
10
20
21
22
19
34
31
32
33
5
23
24
25
26
64
65
66
63
122
119
120
121
8
52
53
54
51
74
71
72
73
7
105
106
103
104
29
30
27
28
-1
EOF
